3025        2907
2892        2821
2864        2801
3064        2968
2986        2908
3006        2941
3107        3062
3039        2959
2902        2795
3091        30461 95 18 49 69 86 28  6 40 88 94 78 43 31 54 80 11 27  3 32  2 49 27 81 18 83 84 49 64 20 52 42 51 66 95 18 37 70 22 87 67 15
